30	100	100	100
12	100	100
43	100	100
27	100	100
30	100	100
29	100	100
33	100	100
35	100	100
48	100	100
38	100	100
8	100	100
36	100	100
18	100	100
48	100	100
47	100	100
16	100	100
31	100	100
36	100	100
43	100	100
2	100	100
4	100	100
9	100	100
10	100	100
43	100	100
30	100	100
42	100	100
33	100	100
2	100	100
29	100	100
2	100	100
11	100	100
